p tw 76 1045
0 1
0 2
0 3
0 4
0 5
0 6
0 7
0 8
0 9
0 10
0 11
0 12
0 13
0 14
0 15
0 16
0 17
0 18
0 24
0 29
0 31
0 37
0 43
0 60
0 61
0 62
0 20
0 38
0 50
0 51
0 70
0 71
0 26
0 30
0 55
0 56
1 2
1 3
1 4
1 5
1 6
1 7
1 8
1 9
1 10
1 16
1 18
1 23
1 30
1 53
1 54
1 55
1 11
1 26
1 29
1 58
1 61
1 66
1 68
1 69
2 3
2 4
2 5
2 6
2 7
2 8
2 9
2 10
2 36
2 44
2 48
2 58
2 60
2 15
2 18
2 29
2 39
2 49
2 50
2 62
2 66
3 4
3 5
3 6
3 7
3 8
3 9
3 10
3 11
3 12
3 13
3 14
3 15
3 16
3 17
3 18
3 28
3 48
3 49
3 50
3 51
3 52
3 36
3 44
3 58
3 60
4 5
4 6
4 7
4 8
4 9
4 10
4 11
4 19
4 20
4 21
4 22
4 23
4 24
4 25
4 26
4 16
4 18
4 30
4 53
4 54
4 55
4 33
4 38
4 39
4 41
4 46
4 63
4 64
4 65
4 12
4 47
4 56
4 57
4 66
4 67
4 17
4 70
5 6
5 7
5 8
5 9
5 10
5 11
5 19
5 20
5 21
5 22
5 23
5 24
5 25
5 26
5 13
5 16
5 28
5 32
5 34
5 48
5 61
5 66
5 70
5 17
5 30
5 50
5 62
5 64
5 15
5 18
5 29
5 39
5 49
5 58
5 43
5 44
5 45
5 69
5 75
6 7
6 8
6 9
6 10
6 33
6 38
6 39
6 41
6 46
6 63
6 64
6 65
6 12
6 22
6 27
6 31
6 36
6 42
6 50
6 53
7 8
7 9
7 10
7 12
7 22
7 27
7 31
7 36
7 42
7 50
7 53
7 15
7 16
7 21
7 26
7 29
7 47
7 48
7 62
8 9
8 10
8 24
8 26
8 32
8 34
8 45
8 56
8 57
8 58
8 59
8 36
8 44
8 48
8 60
8 18
8 35
8 39
8 40
8 46
8 64
8 67
8 71
8 74
9 10
9 36
9 44
9 48
9 58
9 60
10 23
10 27
10 28
10 29
10 30
10 31
10 32
10 33
10 34
10 35
10 24
10 26
10 45
10 56
10 57
10 58
10 59
10 12
10 21
10 22
10 47
10 66
10 67
10 13
10 16
10 48
10 61
10 70
11 12
11 13
11 14
11 15
11 16
11 17
11 18
11 19
11 20
11 21
11 22
11 23
11 24
11 25
11 26
11 28
11 48
11 49
11 50
11 51
11 52
11 29
11 31
11 37
11 43
11 60
11 61
11 62
11 53
11 54
11 58
11 66
11 68
11 69
11 39
11 55
11 70
11 72
11 30
11 56
12 13
12 14
12 15
12 16
12 17
12 18
12 22
12 27
12 31
12 36
12 42
12 50
12 53
12 21
12 24
12 47
12 56
12 57
12 66
12 67
13 14
13 15
13 16
13 17
13 18
13 19
13 27
13 36
13 37
13 38
13 39
13 40
13 41
13 42
13 28
13 48
13 49
13 50
13 51
13 52
13 32
13 34
13 61
13 66
13 70
14 15
14 16
14 17
14 18
14 26
14 29
14 31
14 36
14 43
14 44
14 45
14 46
14 47
14 28
14 48
14 49
14 50
14 51
14 52
15 16
15 17
15 18
15 28
15 48
15 49
15 50
15 51
15 52
15 21
15 26
15 27
15 29
15 31
15 47
15 62
15 19
15 39
15 55
15 58
15 69
15 70
15 72
15 66
16 17
16 18
16 23
16 30
16 53
16 54
16 55
16 21
16 26
16 27
16 29
16 31
16 47
16 48
16 62
16 28
16 32
16 34
16 61
16 66
16 70
16 24
16 43
16 44
16 45
16 49
16 58
16 64
16 69
16 75
17 18
17 21
17 23
17 26
17 30
17 50
17 62
17 64
17 66
17 20
17 37
17 38
17 51
17 61
17 70
17 71
17 24
17 55
17 56
18 23
18 30
18 53
18 54
18 55
18 29
18 39
18 49
18 50
18 58
18 62
18 66
18 35
18 40
18 46
18 48
18 64
18 67
18 71
18 74
19 20
19 21
19 22
19 23
19 24
19 25
19 26
19 27
19 36
19 37
19 38
19 39
19 40
19 41
19 42
19 29
19 55
19 58
19 62
19 69
19 70
19 72
20 21
20 22
20 23
20 24
20 25
20 26
20 37
20 38
20 50
20 51
20 61
20 70
20 71
21 22
21 23
21 24
21 25
21 26
21 47
21 56
21 57
21 66
21 67
21 27
21 29
21 31
21 48
21 62
21 30
21 50
21 64
22 23
22 24
22 25
22 26
22 27
22 31
22 36
22 42
22 50
22 53
22 47
22 56
22 57
22 66
22 67
23 24
23 25
23 26
23 27
23 28
23 29
23 30
23 31
23 32
23 33
23 34
23 35
23 53
23 54
23 55
23 58
23 63
23 64
23 68
23 50
23 62
23 66
24 25
24 26
24 32
24 34
24 45
24 56
24 57
24 58
24 59
24 29
24 31
24 37
24 43
24 60
24 61
24 62
24 47
24 66
24 67
24 30
24 53
24 63
24 64
24 68
24 39
24 41
24 51
24 54
24 69
24 73
24 55
24 70
24 44
24 49
24 75
25 26
26 29
26 31
26 36
26 43
26 44
26 45
26 46
26 47
26 32
26 34
26 56
26 57
26 58
26 59
26 27
26 48
26 62
26 53
26 54
26 61
26 66
26 68
26 69
26 30
26 50
26 64
26 55
26 70
27 28
27 29
27 30
27 31
27 32
27 33
27 34
27 35
27 36
27 37
27 38
27 39
27 40
27 41
27 42
27 50
27 53
27 47
27 48
27 62
28 29
28 30
28 31
28 32
28 33
28 34
28 35
28 48
28 49
28 50
28 51
28 52
28 61
28 66
28 70
29 30
29 31
29 32
29 33
29 34
29 35
29 36
29 43
29 44
29 45
29 46
29 47
29 37
29 60
29 61
29 62
29 48
29 53
29 54
29 58
29 66
29 68
29 69
29 39
29 55
29 70
29 72
29 49
29 50
29 41
29 51
29 63
29 67
29 73
30 31
30 32
30 33
30 34
30 35
30 53
30 54
30 55
30 58
30 63
30 64
30 68
30 50
30 62
30 66
30 39
30 41
30 51
30 67
30 69
30 73
30 56
30 70
31 32
31 33
31 34
31 35
31 36
31 43
31 44
31 45
31 46
31 47
31 37
31 60
31 61
31 62
31 42
31 50
31 53
31 48
32 33
32 34
32 35
32 45
32 56
32 57
32 58
32 59
32 48
32 61
32 66
32 70
33 34
33 35
33 38
33 39
33 41
33 46
33 63
33 64
33 65
34 35
34 45
34 56
34 57
34 58
34 59
34 48
34 61
34 66
34 70
34 53
34 63
34 64
34 68
35 39
35 40
35 46
35 48
35 64
35 67
35 71
35 74
36 37
36 38
36 39
36 40
36 41
36 42
36 43
36 44
36 45
36 46
36 47
36 50
36 53
36 48
36 58
36 60
37 38
37 39
37 40
37 41
37 42
37 43
37 60
37 61
37 62
37 50
37 51
37 70
37 71
38 39
38 40
38 41
38 42
38 46
38 63
38 64
38 65
38 50
38 51
38 61
38 70
38 71
39 40
39 41
39 42
39 46
39 63
39 64
39 65
39 55
39 58
39 62
39 69
39 70
39 72
39 49
39 50
39 66
39 51
39 54
39 67
39 73
39 48
39 71
39 74
40 41
40 42
40 46
40 48
40 64
40 67
40 71
40 74
41 42
41 46
41 63
41 64
41 65
41 51
41 54
41 67
41 69
41 73
42 50
42 53
43 44
43 45
43 46
43 47
43 60
43 61
43 62
43 49
43 58
43 64
43 69
43 75
44 45
44 46
44 47
44 48
44 58
44 60
44 49
44 64
44 69
44 75
45 46
45 47
45 56
45 57
45 58
45 59
45 49
45 64
45 69
45 75
46 47
46 63
46 64
46 65
46 48
46 67
46 71
46 74
47 56
47 57
47 66
47 67
47 48
47 62
48 49
48 50
48 51
48 52
48 62
48 58
48 60
48 61
48 66
48 70
48 64
48 67
48 71
48 74
49 50
49 51
49 52
49 58
49 62
49 66
49 64
49 69
49 75
50 51
50 52
50 53
50 62
50 64
50 66
50 61
50 70
50 71
50 58
51 52
51 61
51 70
51 71
51 54
51 63
51 67
51 69
51 73
53 54
53 55
53 58
53 61
53 66
53 68
53 69
53 63
53 64
54 55
54 58
54 61
54 66
54 68
54 69
54 63
54 67
54 73
55 58
55 62
55 69
55 70
55 72
55 56
56 57
56 58
56 59
56 66
56 67
56 70
57 58
57 59
57 66
57 67
58 59
58 61
58 66
58 68
58 69
58 60
58 63
58 64
58 62
58 70
58 72
58 75
60 61
60 62
61 62
61 66
61 68
61 69
61 70
61 71
62 64
62 66
62 69
62 70
62 72
63 64
63 65
63 68
63 67
63 69
63 73
64 65
64 68
64 66
64 67
64 71
64 74
64 69
64 75
66 67
66 68
66 69
66 70
67 69
67 73
67 71
67 74
68 69
69 70
69 72
69 73
69 75
70 71
70 72
71 74
